
Gurobi 9.5.0 (win64) logging started Sat May 14 17:52:23 2022

Set parameter LogFile to value "../results/logs/log_soc-dolphins_3_1_2022_05_14_17_52.log"
Set parameter LazyConstraints to value 1

Gurobi 9.5.0 (win64) logging started Sat May 14 17:52:38 2022

Set parameter LogFile to value "../results/logs/log_soc-dolphins_3_1_2022_05_14_17_52.log"
Set parameter LazyConstraints to value 1
